Optimal - objective value -128.31000000
    115 squad[79]                                  1                       0
    116 squad[80]                                  1                       0
    124 squad[88]                                  1                       0
    157 squad[109]                                 1                       0
    161 squad[116]                                 1                       0
    177 squad[586]                                 1                       0
    209 squad[150]                                 1                       0
    343 squad[248]                                 1                       0
    424 squad[280]                                 1                       0
    427 squad[283]                                 1                       0
    429 squad[285]                                 1                       0
    495 squad[335]                                 1                       0
    594 squad[585]                                 1                       0
    628 squad[422]                                 1                       0
    681 squad[456]                                 1                       0
    862 lineup[79]                                 1                    -8.5
    863 lineup[80]                                 1                   -13.1
    871 lineup[88]                                 1                    -9.9
    904 lineup[109]                                1                   -11.4
    908 lineup[116]                                1                   -11.4
    924 lineup[586]                                1                     -14
   1171 lineup[280]                                1                    -8.2
   1174 lineup[283]                                1                   -10.8
   1176 lineup[285]                                1                    -8.4
   1242 lineup[335]                                1                    -8.7
   1375 lineup[422]                                1                    -8.6
   1671 captain[586]                               1                     -14
   2357 vicecap[80]                                1                   -1.31
